p cnf 120 147
-10  -7  -8  0
13  -10  -11  0
16  13  14  0
-19  -16  17  0
-25  22  -23  0
28  -25  26  0
-31  28  -29  0
37  34  35  0
43  40  -41  0
-46  -43  44  0
-58  -55  -56  0
61  -58  59  0
-67  -64  65  0
73  -70  71  0
-76  73  74  0
-79  76  -77  0
-94  91  92  0
97  -94  95  0
-103  100  101  0
106  103  104  0
-112  -109  -110  0
-115  112  -113  0
-118  -115  116  0
5  4  -2  0
-5  4  -1  0
5  -1  -2  0
5  2  3  0
8  7  -5  0
-8  -7  4  0
-8  4  -5  0
-11  7  -8  0
-14  13  -11  0
14  -10  -11  0
-17  -16  14  0
20  19  -16  0
20  -17  -18  0
-23  19  -20  0
26  22  -23  0
26  23  24  0
-29  -28  -25  0
-29  25  26  0
35  -31  -32  0
35  32  33  0
38  37  -34  0
41  -40  -38  0
-41  -40  37  0
41  -37  -38  0
44  43  40  0
44  -40  -41  0
-44  41  42  0
-47  43  44  0
-47  -44  45  0
50  -46  -47  0
53  52  -50  0
53  -52  49  0
56  55  53  0
56  -52  -53  0
-56  -53  54  0
-59  58  56  0
-59  -58  55  0
-62  61  -59  0
-62  61  58  0
-62  59  -60  0
65  -61  62  0
-68  -67  65  0
71  -70  -68  0
-74  73  70  0
74  70  71  0
74  71  72  0
-80  79  -77  0
80  77  -78  0
83  80  81  0
-86  -85  82  0
-86  83  84  0
89  88  86  0
-89  -85  -86  0
-92  91  89  0
-92  89  90  0
-95  -94  -92  0
95  94  91  0
-95  91  92  0
-95  -92  93  0
-98  -97  -95  0
-101  100  -98  0
-101  -97  -98  0
101  -98  99  0
104  -103  100  0
-104  100  101  0
-104  101  102  0
110  109  -106  0
-113  112  110  0
116  112  113  0
-116  -113  114  0
-119  -116  117  0
9  8  6  0
-9  8  -5  0
15  14  -12  0
-15  11  12  0
18  17  15  0
-18  -17  -14  0
-21  -20  -18  0
24  -23  -20  0
27  -26  23  0
-33  29  30  0
-36  35  -32  0
-36  32  -33  0
39  -38  36  0
39  38  -35  0
-39  35  36  0
-45  41  -42  0
48  -47  45  0
-48  -44  -45  0
51  -50  -48  0
-51  47  -48  0
-54  53  50  0
57  -53  -54  0
60  59  57  0
66  65  -63  0
66  -65  -62  0
-66  -62  63  0
-69  68  65  0
69  65  66  0
72  -71  -69  0
75  74  71  0
-75  -71  -72  0
78  77  -74  0
81  -80  78  0
-81  80  77  0
81  77  -78  0
-84  -83  80  0
87  -86  83  0
-87  -83  84  0
-90  -89  87  0
90  89  86  0
93  -92  89  0
96  92  -93  0
102  101  98  0
-102  98  -99  0
-105  101  102  0
-108  -107  -105  0
108  107  104  0
108  -104  105  0
114  110  -111  0
-117  116  114  0
117  -113  -114  0
120  119  -117  0
120  -116  117  0
